c instance by G2
c solution = 0110100010101
c Known solution cost is 623 
p cnf 13 30
w 90 77 4 14 15 81 99 44 57 46 44 0 52
7 5 -3 0
-3 10 9 0
-11 -6 -3 0
-6 8 -11 0
-3 -12 -9 0
7 -3 5 0
11 -2 6 0
-3 5 -2 0
4 -6 1 0
2 6 -5 0
-2 -13 -1 0
7 -13 5 0
-4 12 -11 0
-3 -7 8 0
-4 -9 7 0
-12 13 9 0
12 -6 -11 0
7 4 -10 0
-9 -13 11 0
-9 -8 -4 0
-10 6 -11 0
10 -9 -7 0
11 10 -2 0
6 7 3 0
-7 -2 11 0
-8 4 -2 0
11 10 7 0
-11 2 12 0
8 12 13 0
10 11 -13 0
